c ! encoding i-pc 250
p cnf 359 373
67 -252 0
239 -253 0
213 -254 0
218 -255 0
51 -256 0
144 -257 0
208 -258 0
24 -259 0
147 -260 0
261 -262 0
262 -263 0
49 -263 0
-98 -265 0
264 -265 0
265 -266 0
-49 -266 0
267 -268 0
209 -268 0
98 -269 0
269 -270 0
-209 -270 0
228 -272 0
272 -274 0
273 -274 0
274 -275 0
233 -275 0
31 -276 0
-228 -276 0
276 -278 0
277 -278 0
278 -279 0
171 -279 0
273 -281 0
280 -281 0
281 -282 0
-171 -282 0
283 -284 0
-233 -284 0
287 -299 0
288 -299 0
289 -299 0
290 -299 0
291 -299 0
292 -299 0
293 -299 0
294 -299 0
295 -299 0
296 -299 0
297 -299 0
298 -299 0
271 -300 0
285 -300 0
299 -300 0
-147 -301 0
2 -305 0
-2 -306 0
-24 -308 0
25 -311 0
-25 -312 0
190 -314 0
-190 -315 0
112 -318 0
-112 -319 0
-208 -323 0
-144 -326 0
72 -328 0
-72 -329 0
-51 -333 0
30 -337 0
-30 -338 0
175 -340 0
-175 -341 0
73 -343 0
-73 -344 0
-218 -346 0
75 -348 0
-75 -349 0
178 -351 0
-178 -352 0
-213 -354 0
-239 -356 0
-67 -358 0
1 0
4 0
-5 0
-6 0
-7 0
8 0
9 0
10 0
-11 0
-12 0
-13 0
14 0
15 0
-16 0
-17 0
-18 0
19 0
20 0
21 0
-22 0
23 0
26 0
27 0
-28 0
-29 0
-32 0
33 0
-34 0
35 0
-36 0
37 0
38 0
-39 0
-40 0
41 0
-42 0
-43 0
44 0
45 0
-46 0
-47 0
48 0
50 0
52 0
-53 0
-54 0
-55 0
-56 0
57 0
58 0
-59 0
60 0
61 0
62 0
-63 0
64 0
65 0
-66 0
-68 0
69 0
70 0
71 0
-74 0
76 0
77 0
78 0
79 0
-80 0
81 0
-82 0
-83 0
84 0
85 0
86 0
-87 0
88 0
-89 0
90 0
91 0
-92 0
-93 0
94 0
-95 0
-96 0
-97 0
-99 0
100 0
-101 0
-102 0
103 0
-104 0
-105 0
-106 0
-107 0
-108 0
-109 0
110 0
-111 0
-113 0
-114 0
-115 0
-116 0
117 0
119 0
120 0
121 0
-122 0
-123 0
124 0
125 0
126 0
127 0
128 0
129 0
-130 0
-131 0
-132 0
-133 0
-134 0
135 0
-136 0
-137 0
138 0
139 0
140 0
141 0
-142 0
-143 0
-146 0
-148 0
-149 0
-150 0
-151 0
152 0
-153 0
-154 0
155 0
156 0
157 0
158 0
159 0
-160 0
-161 0
162 0
-163 0
-164 0
165 0
166 0
167 0
168 0
169 0
170 0
172 0
-176 0
177 0
-179 0
180 0
-181 0
-182 0
-183 0
184 0
186 0
187 0
188 0
189 0
-191 0
-192 0
193 0
194 0
-195 0
197 0
199 0
-200 0
201 0
204 0
206 0
-210 0
-211 0
212 0
-214 0
215 0
-216 0
-219 0
220 0
221 0
222 0
-223 0
225 0
-226 0
227 0
229 0
-230 0
231 0
-232 0
-234 0
235 0
-236 0
-237 0
238 0
-240 0
-241 0
-242 0
243 0
-244 0
245 0
246 0
247 0
-248 0
-249 0
-250 0
-355 356 0
-353 354 0
-348 350 0
-347 348 0
-346 347 0
-345 346 0
-343 345 0
-354 355 0
-342 343 0
-339 340 0
-333 334 0
-332 333 0
-327 328 0
-326 327 0
-337 339 0
-325 326 0
-323 324 0
-322 323 0
-320 322 0
-318 320 0
-317 318 0
-313 314 0
-311 313 0
-310 311 0
-309 310 0
-305 307 0
-193 335 0
-304 305 0
-301 302 0
-303 304 0
-263 267 0
-267 268 0
-300 301 0
233 284 0
-265 266 0
-49 263 269 0
-283 284 0
-281 282 0
-261 262 0
-269 270 0
31 273 0
-251 252 253 254 255 256 257 258 259 260 306 312 315 319 329 338 341 344 349 352 0
-277 278 0
-351 353 0
209 270 0
-280 281 0
-357 358 0
49 266 0
-264 265 0
-31 273 276 0
-262 263 0
-331 332 0
-118 277 0
-282 283 0
-336 337 0
-324 325 0
-171 279 0
-314 316 0
-233 275 0
-286 300 0
145 264 0
-307 308 0
-1 303 0
-272 274 0
-334 336 0
118 272 277 281 0
-273 274 281 0
-274 275 0
-328 330 0
-276 278 0
-278 279 0
-356 357 0
-209 268 0
-350 351 0
-308 309 0
-340 342 0
87 321 0
22 317 0
-358 359 0
-38 331 0
80 286 0
